;; produced by z3_gnatprove.drv ;;
(set-info :smt-lib-version 2.5)
(set-info :source |VC generated by SPARK 2014|)
(set-info :category industrial)
(set-info :status unknown)
;;; generated by SMT-LIB2 driver
;;; SMT-LIB2 driver: bit-vectors, common part
;;; SMT-LIB2: integer arithmetic
(declare-sort string 0)

(declare-datatypes () ((tuple0 (Tuple0))))
(declare-sort us_private 0)

(declare-fun private__bool_eq (us_private us_private) Bool)

(declare-const us_null_ext__ us_private)

(declare-sort us_type_of_heap 0)

(declare-datatypes ()
((us_type_of_heap__ref
 (us_type_of_heap__refqtmk (us_type_of_heap__content us_type_of_heap)))))
(declare-sort us_image 0)

(declare-datatypes () ((int__ref (int__refqtmk (int__content Int)))))
(declare-datatypes () ((bool__ref (bool__refqtmk (bool__content Bool)))))
(declare-datatypes ()
((us_fixed__ref (us_fixed__refqtmk (us_fixed__content Int)))))
(declare-datatypes () ((real__ref (real__refqtmk (real__content Real)))))
(declare-datatypes ()
((us_private__ref (us_private__refqtmk (us_private__content us_private)))))
(define-fun int__ref___projection ((a int__ref)) Int (int__content a))

(define-fun us_fixed__ref___projection ((a us_fixed__ref)) Int (us_fixed__content
                                                               a))

(define-fun bool__ref___projection ((a bool__ref)) Bool (bool__content a))

(define-fun real__ref___projection ((a real__ref)) Real (real__content a))

(define-fun us_private__ref___projection ((a us_private__ref)) us_private 
  (us_private__content a))

(declare-fun nth ((_ BitVec 32) Int) Bool)

(declare-fun lsr ((_ BitVec 32) Int) (_ BitVec 32))

(declare-fun asr ((_ BitVec 32) Int) (_ BitVec 32))

(declare-fun lsl ((_ BitVec 32) Int) (_ BitVec 32))

(define-fun abs1 ((x Int)) Int (ite (<= 0 x) x (- x)))

;; Abs_le
  (assert
  (forall ((x Int) (y Int)) (= (<= (abs1 x) y) (and (<= (- y) x) (<= x y)))))

;; Abs_pos
  (assert (forall ((x Int)) (<= 0 (abs1 x))))

(declare-fun rotate_right1 ((_ BitVec 32) Int) (_ BitVec 32))

(declare-fun rotate_left1 ((_ BitVec 32) Int) (_ BitVec 32))

(declare-fun pow2 (Int) Int)

(define-fun to_int1 ((x (_ BitVec 32))) Int (ite (bvsge x (_ bv0 32))
                                            (bv2int x)
                                            (- (- 4294967296 (bv2int x)))))

(define-fun uint_in_range ((i Int)) Bool (and (<= 0 i) (<= i 4294967295)))

(declare-fun nth_bv ((_ BitVec 32) (_ BitVec 32)) Bool)

(declare-fun eq_sub_bv ((_ BitVec 32) (_ BitVec 32) (_ BitVec 32)
  (_ BitVec 32)) Bool)

(define-fun eq_sub ((a (_ BitVec 32)) (b (_ BitVec 32)) (i Int)
  (n Int)) Bool (forall ((j Int))
                (=> (and (<= i j) (< j (+ i n))) (= (nth a j) (nth b j)))))

(declare-datatypes () ((t__ref (t__refqtmk (t__content (_ BitVec 32))))))
(declare-fun power ((_ BitVec 32) Int) (_ BitVec 32))

(define-fun bv_min ((x (_ BitVec 32))
  (y (_ BitVec 32))) (_ BitVec 32) (ite (bvule x y) x y))

(define-fun bv_max ((x (_ BitVec 32))
  (y (_ BitVec 32))) (_ BitVec 32) (ite (bvule x y) y x))

(define-fun min ((x Int) (y Int)) Int (ite (<= x y) x y))

(define-fun max ((x Int) (y Int)) Int (ite (<= x y) y x))

;; Min_r
  (assert (forall ((x Int) (y Int)) (=> (<= y x) (= (min x y) y))))

;; Max_l
  (assert (forall ((x Int) (y Int)) (=> (<= y x) (= (max x y) x))))

;; Min_comm
  (assert (forall ((x Int) (y Int)) (= (min x y) (min y x))))

;; Max_comm
  (assert (forall ((x Int) (y Int)) (= (max x y) (max y x))))

;; Min_assoc
  (assert
  (forall ((x Int) (y Int) (z Int)) (= (min (min x y) z) (min x (min y z)))))

;; Max_assoc
  (assert
  (forall ((x Int) (y Int) (z Int)) (= (max (max x y) z) (max x (max y z)))))

(declare-fun nth1 ((_ BitVec 64) Int) Bool)

(declare-fun lsr1 ((_ BitVec 64) Int) (_ BitVec 64))

(declare-fun asr1 ((_ BitVec 64) Int) (_ BitVec 64))

(declare-fun lsl1 ((_ BitVec 64) Int) (_ BitVec 64))

(declare-fun rotate_right2 ((_ BitVec 64) Int) (_ BitVec 64))

(declare-fun rotate_left2 ((_ BitVec 64) Int) (_ BitVec 64))

(define-fun to_int2 ((x (_ BitVec 64))) Int (ite (bvsge x (_ bv0 64))
                                            (bv2int x)
                                            (- (- 18446744073709551616 (bv2int x)))))

(define-fun uint_in_range1 ((i Int)) Bool (and (<= 0 i)
                                          (<= i 18446744073709551615)))

(declare-fun nth_bv1 ((_ BitVec 64) (_ BitVec 64)) Bool)

(declare-fun eq_sub_bv1 ((_ BitVec 64) (_ BitVec 64) (_ BitVec 64)
  (_ BitVec 64)) Bool)

(define-fun eq_sub1 ((a (_ BitVec 64)) (b (_ BitVec 64)) (i Int)
  (n Int)) Bool (forall ((j Int))
                (=> (and (<= i j) (< j (+ i n))) (= (nth1 a j) (nth1 b j)))))

(declare-datatypes () ((t__ref1 (t__refqtmk1 (t__content1 (_ BitVec 64))))))
(declare-fun power1 ((_ BitVec 64) Int) (_ BitVec 64))

(define-fun bv_min1 ((x (_ BitVec 64))
  (y (_ BitVec 64))) (_ BitVec 64) (ite (bvule x y) x y))

(define-fun bv_max1 ((x (_ BitVec 64))
  (y (_ BitVec 64))) (_ BitVec 64) (ite (bvule x y) y x))

(declare-const attr__ATTRIBUTE_ADDRESS Int)

(declare-sort unsigned_64 0)

(declare-const attr__ATTRIBUTE_MODULUS (_ BitVec 64))

(declare-fun attr__ATTRIBUTE_IMAGE ((_ BitVec 64)) us_image)

(declare-fun attr__ATTRIBUTE_VALUE__pre_check (us_image) Bool)

(declare-fun attr__ATTRIBUTE_VALUE (us_image) (_ BitVec 64))

(declare-fun user_eq (unsigned_64 unsigned_64) Bool)

(declare-const dummy unsigned_64)

(declare-datatypes ()
((unsigned_64__ref (unsigned_64__refqtmk (unsigned_64__content unsigned_64)))))
(define-fun unsigned_64__ref_unsigned_64__content__projection ((a unsigned_64__ref)) unsigned_64 
  (unsigned_64__content a))

(define-fun dynamic_invariant ((temp___expr_193 (_ BitVec 64))
  (temp___is_init_189 Bool) (temp___skip_constant_190 Bool)
  (temp___do_toplevel_191 Bool) (temp___do_typ_inv_192 Bool)) Bool true)

(declare-sort unsigned_32 0)

(declare-const attr__ATTRIBUTE_MODULUS1 (_ BitVec 32))

(declare-fun attr__ATTRIBUTE_IMAGE1 ((_ BitVec 32)) us_image)

(declare-fun attr__ATTRIBUTE_VALUE__pre_check1 (us_image) Bool)

(declare-fun attr__ATTRIBUTE_VALUE1 (us_image) (_ BitVec 32))

(declare-fun user_eq1 (unsigned_32 unsigned_32) Bool)

(declare-const dummy1 unsigned_32)

(declare-datatypes ()
((unsigned_32__ref (unsigned_32__refqtmk (unsigned_32__content unsigned_32)))))
(define-fun unsigned_32__ref_unsigned_32__content__projection ((a unsigned_32__ref)) unsigned_32 
  (unsigned_32__content a))

(define-fun dynamic_invariant1 ((temp___expr_179 (_ BitVec 32))
  (temp___is_init_175 Bool) (temp___skip_constant_176 Bool)
  (temp___do_toplevel_177 Bool) (temp___do_typ_inv_178 Bool)) Bool true)

(declare-fun to_rep (unsigned_32) (_ BitVec 32))

(declare-fun of_rep ((_ BitVec 32)) unsigned_32)

;; inversion_axiom
  (assert
  (forall ((x unsigned_32))
  (! (= (of_rep (to_rep x)) x) :pattern ((to_rep x)) )))

;; range_axiom
  (assert true)

;; coerce_axiom
  (assert
  (forall ((x (_ BitVec 32)))
  (! (= (to_rep (of_rep x)) x) :pattern ((to_rep (of_rep x))) )))

(define-fun to_int3 ((x unsigned_32)) Int (bv2int (to_rep x)))

;; range_int_axiom
  (assert
  (forall ((x unsigned_32)) (! (uint_in_range
  (to_int3 x)) :pattern ((to_int3 x)) )))

(declare-const value (_ BitVec 32))

;; Assume
  (assert true)

;; Assume
  (assert (dynamic_invariant1 value false false true true))

(define-fun o () (_ BitVec 64) ((_ zero_extend 32) value))

;; Ensures
  (assert true)

(define-fun o1 () (_ BitVec 64) ((_ zero_extend 32) ((_ extract 31 0) o)))

;; Ensures
  (assert true)

(declare-const foo__get__data (_ BitVec 64))

;; Ensures
  (assert (dynamic_invariant foo__get__data true true true true))

(assert
;; defqtvc
 ;; File "main.adb", line 4, characters 0-0
  (not (bvule ((_ zero_extend 32) #x00000000) foo__get__data)))
(check-sat)
